10J3M/DAT/10J3MNTL-19.dat
10 3
17.4035 17.4035
22.8083 22.8083
21.1934 21.1934
22.9275 22.9275
15.6876 15.6876
22.73 22.73
28.0162 28.0162
26.5777 26.5777
25.6878 25.6878
28.89 28.89
57.9805