10J3M/SOL/10J3MNTL-19.sol
solution status: optimal solution found
objective value:                              57.9805
x#1#1                                               1 	(obj:0)
x#2#3                               0.925079905122258 	(obj:0)
x#3#3                                               1 	(obj:0)
x#5#3                                               1 	(obj:0)
x#6#1                                               1 	(obj:0)
x#7#2                                               1 	(obj:0)
x#8#2                                               1 	(obj:0)
x#9#1                               0.694765608576834 	(obj:0)
x#10#2                              0.117223952924888 	(obj:0)
z                                             57.9805 	(obj:1)
